20 50 128
1 3 5
1 4 2
1 12 4
1 14 3
1 15 2
1 17 1
1 18 2
1 20 5
2 10 1
2 12 2
2 18 2
3 6 2
3 10 3
3 15 5
3 17 5
3 19 5
4 10 3
5 8 2
5 13 1
5 15 5
5 16 4
5 17 5
5 20 2
6 10 3
6 11 4
6 12 4
6 13 5
6 17 5
7 8 4
7 10 1
7 11 4
7 12 5
7 13 1
7 16 5
7 17 3
8 13 1
8 16 5
9 16 1
10 11 4
10 16 1
11 15 3
11 16 3
11 18 5
11 19 1
13 18 5
14 17 4
14 19 4
15 18 1
17 18 2
18 19 4
